84
125
100	2
99	1
98	1
97	8
96	4
95	6
94	2
93	4
92	2
91	2
90	2
89	6
88	4
87	3
86	5
85	2
84	5
83	4
82	1
81	4
80	5
79	3
78	4
77	2
76	2
75	6
74	5
73	1
72	6
71	7
70	4
69	3
67	1
66	4
65	1
64	2
63	5
62	3
61	6
60	2
59	8
58	1
57	2
56	4
55	5
54	3
53	4
52	2
51	7
50	3
48	9
47	6
46	6
45	2
44	8
43	4
42	2
41	3
40	2
39	1
38	3
37	2
35	2
34	3
33	2
31	3
30	3
29	1
27	5
26	3
25	3
24	4
23	1
22	1
21	5
20	4
19	1
18	2
17	3
16	4
15	7
14	9
13	2
12	5
